
******************************************************************************
This program contains Ipopt, a library for large-scale nonlinear optimization.
 Ipopt is released as open source code under the Eclipse Public License (EPL).
         For more information visit http://projects.coin-or.org/Ipopt
******************************************************************************

This is Ipopt version 3.12.6, running with linear solver ma57.

Number of nonzeros in equality constraint Jacobian...:        0
Number of nonzeros in inequality constraint Jacobian.:        0
Number of nonzeros in Lagrangian Hessian.............:        3

Total number of variables............................:        2
                     variables with only lower bounds:        0
                variables with lower and upper bounds:        0
                     variables with only upper bounds:        0
Total number of equality constraints.................:        0
Total number of inequality constraints...............:        0
        inequality constraints with only lower bounds:        0
   inequality constraints with lower and upper bounds:        0
        inequality constraints with only upper bounds:        0

iter    objective    inf_pr   inf_du lg(mu)  ||d||  lg(rg) alpha_du alpha_pr  ls
   0  1.7152347e+01 0.00e+00 4.60e+00  -1.0 0.00e+00    -  0.00e+00 0.00e+00   0
   1  1.4250493e+01 0.00e+00 7.12e-01  -1.0 8.15e-01    -  1.00e+00 1.00e+00f  1
   2  1.4183256e+01 0.00e+00 1.26e-01  -1.7 1.48e-01   0.0 1.00e+00 1.00e+00f  1
   3  1.4164437e+01 0.00e+00 6.42e-02  -2.5 1.71e-01  -0.5 1.00e+00 1.00e+00f  1
   4  1.4071946e+01 0.00e+00 5.27e-01  -2.5 6.61e+02    -  1.00e+00 1.95e-03f 10
   5  1.3945176e+01 0.00e+00 4.92e-01  -2.5 1.36e+00    -  1.00e+00 1.00e+00f  1
   6  1.3827262e+01 0.00e+00 7.10e-01  -2.5 1.64e+00    -  1.00e+00 1.00e+00f  1
   7  1.3691362e+01 0.00e+00 4.19e-01  -2.5 1.31e+00    -  1.00e+00 1.00e+00f  1
   8  1.3629362e+01 0.00e+00 1.32e+00  -2.5 2.29e+00    -  1.00e+00 1.00e+00f  1
   9  1.3431617e+01 0.00e+00 1.84e-01  -2.5 7.75e-01    -  1.00e+00 1.00e+00f  1
iter    objective    inf_pr   inf_du lg(mu)  ||d||  lg(rg) alpha_du alpha_pr  ls
  10  1.3344803e+01 0.00e+00 6.47e-01  -2.5 5.81e+00    -  1.00e+00 2.50e-01f  3
  11  1.3212543e+01 0.00e+00 6.22e-01  -2.5 1.55e+00    -  1.00e+00 1.00e+00f  1
  12  1.3080553e+01 0.00e+00 6.33e-01  -2.5 1.54e+00    -  1.00e+00 1.00e+00f  1
  13  1.2943687e+01 0.00e+00 5.49e-01  -2.5 1.37e+00    -  1.00e+00 1.00e+00f  1
  14  1.2812636e+01 0.00e+00 6.08e-01  -2.5 1.40e+00    -  1.00e+00 1.00e+00f  1
  15  1.2667252e+01 0.00e+00 3.97e-01  -2.5 1.01e+00    -  1.00e+00 1.00e+00f  1
  16  1.2563226e+01 0.00e+00 8.50e-01  -2.5 1.60e+00    -  1.00e+00 1.00e+00f  1
  17  1.2385627e+01 0.00e+00 1.96e-01  -2.5 9.13e-01    -  1.00e+00 1.00e+00f  1
  18  1.2315263e+01 0.00e+00 1.07e+00  -2.5 3.68e+00    -  1.00e+00 5.00e-01f  2
  19  1.2121500e+01 0.00e+00 2.01e-01  -2.5 9.10e-01    -  1.00e+00 1.00e+00f  1
iter    objective    inf_pr   inf_du lg(mu)  ||d||  lg(rg) alpha_du alpha_pr  ls
  20  1.2090084e+01 0.00e+00 1.43e+00  -2.5 4.56e+00    -  1.00e+00 5.00e-01f  2
  21  1.1841995e+01 0.00e+00 1.80e-01  -2.5 7.19e-01    -  1.00e+00 1.00e+00f  1
  22  1.1740819e+01 0.00e+00 6.89e-01  -2.5 6.10e+00    -  1.00e+00 2.50e-01f  3
  23  1.1583659e+01 0.00e+00 5.59e-01  -2.5 1.45e+00    -  1.00e+00 1.00e+00f  1
  24  1.1442901e+01 0.00e+00 7.70e-01  -2.5 1.71e+00    -  1.00e+00 1.00e+00f  1
  25  1.1269497e+01 0.00e+00 3.73e-01  -2.5 1.00e+00    -  1.00e+00 1.00e+00f  1
  26  1.1160710e+01 0.00e+00 5.14e-01  -2.5 2.10e+00    -  1.00e+00 5.00e-01f  2
  27  1.1001930e+01 0.00e+00 4.91e-01  -2.5 1.25e+00    -  1.00e+00 1.00e+00f  1
  28  1.0832240e+01 0.00e+00 4.47e-01  -2.5 1.30e+00    -  1.00e+00 1.00e+00f  1
  29  1.0680183e+01 0.00e+00 7.68e-01  -2.5 1.70e+00    -  1.00e+00 1.00e+00f  1
iter    objective    inf_pr   inf_du lg(mu)  ||d||  lg(rg) alpha_du alpha_pr  ls
  30  1.0491885e+01 0.00e+00 3.69e-01  -2.5 1.24e+00    -  1.00e+00 1.00e+00f  1
  31  1.0373273e+01 0.00e+00 6.15e-01  -2.5 2.66e+00    -  1.00e+00 5.00e-01f  2
  32  1.0200248e+01 0.00e+00 6.99e-01  -2.5 1.69e+00    -  1.00e+00 1.00e+00f  1
  33  1.0014246e+01 0.00e+00 5.65e-01  -2.5 1.47e+00    -  1.00e+00 1.00e+00f  1
  34  9.8482328e+00 0.00e+00 7.87e-01  -2.5 1.74e+00    -  1.00e+00 1.00e+00f  1
  35  9.6397265e+00 0.00e+00 3.77e-01  -2.5 9.63e-01    -  1.00e+00 1.00e+00f  1
  36  9.5076523e+00 0.00e+00 5.09e-01  -2.5 2.07e+00    -  1.00e+00 5.00e-01f  2
  37  9.3140353e+00 0.00e+00 5.21e-01  -2.5 1.35e+00    -  1.00e+00 1.00e+00f  1
  38  9.1078249e+00 0.00e+00 5.07e-01  -2.5 1.42e+00    -  1.00e+00 1.00e+00f  1
  39  8.9135850e+00 0.00e+00 7.63e-01  -2.5 1.76e+00    -  1.00e+00 1.00e+00f  1
iter    objective    inf_pr   inf_du lg(mu)  ||d||  lg(rg) alpha_du alpha_pr  ls
  40  8.6846137e+00 0.00e+00 4.62e-01  -2.5 1.36e+00    -  1.00e+00 1.00e+00f  1
  41  8.5744307e+00 0.00e+00 1.28e+00  -2.5 2.35e+00    -  1.00e+00 1.00e+00f  1
  42  8.2373796e+00 0.00e+00 2.79e-01  -2.5 6.26e-01    -  1.00e+00 1.00e+00f  1
  43  8.1733316e+00 0.00e+00 1.08e+00  -2.5 4.15e+00    -  1.00e+00 5.00e-01f  2
  44  7.7922041e+00 0.00e+00 2.69e-01  -2.5 8.01e-01    -  1.00e+00 1.00e+00f  1
  45  7.7220666e+00 0.00e+00 1.28e+00  -2.5 3.80e+00    -  1.00e+00 5.00e-01f  2
  46  7.3131451e+00 0.00e+00 2.22e-01  -2.5 8.47e-01    -  1.00e+00 1.00e+00f  1
  47  7.2023297e+00 0.00e+00 1.30e+00  -2.5 4.50e+00    -  1.00e+00 5.00e-01f  2
  48  6.7955157e+00 0.00e+00 3.29e-01  -2.5 7.64e-01    -  1.00e+00 1.00e+00f  1
  49  6.6204574e+00 0.00e+00 9.66e-01  -2.5 3.94e+00    -  1.00e+00 5.00e-01f  2
iter    objective    inf_pr   inf_du lg(mu)  ||d||  lg(rg) alpha_du alpha_pr  ls
  50  6.2266268e+00 0.00e+00 3.77e-01  -2.5 9.26e-01    -  1.00e+00 1.00e+00f  1
  51  5.9819342e+00 0.00e+00 6.90e-01  -2.5 2.85e+00    -  1.00e+00 5.00e-01f  2
  52  5.5825699e+00 0.00e+00 4.91e-01  -2.5 1.44e+00    -  1.00e+00 1.00e+00f  1
  53  5.3396707e+00 0.00e+00 1.27e+00  -2.5 2.49e+00    -  1.00e+00 1.00e+00f  1
  54  4.7219695e+00 0.00e+00 5.01e-01  -2.5 9.08e-01    -  1.00e+00 1.00e+00f  1
  55  4.2935526e+00 0.00e+00 6.78e-01  -2.5 2.95e+00    -  1.00e+00 5.00e-01f  2
  56  3.5866914e+00 0.00e+00 8.09e-01  -2.5 1.84e+00    -  1.00e+00 1.00e+00f  1
  57  3.0240978e+00 0.00e+00 1.52e+00  -2.5 2.36e+00    -  1.00e+00 1.00e+00f  1
  58  1.1601348e+00 0.00e+00 1.42e+00  -2.5 1.20e+00    -  1.00e+00 1.00e+00f  1
  59  1.3529501e-02 0.00e+00 2.12e-01  -2.5 2.30e+00  -0.1 1.00e+00 5.00e-01f  2
iter    objective    inf_pr   inf_du lg(mu)  ||d||  lg(rg) alpha_du alpha_pr  ls
  60  1.3827561e-04 0.00e+00 1.81e-02  -2.5 8.34e-02    -  1.00e+00 1.00e+00f  1
  61  4.7273634e-08 0.00e+00 3.13e-04  -3.8 8.74e-03    -  1.00e+00 1.00e+00f  1
  62  6.7433199e-15 0.00e+00 1.30e-07  -5.7 1.57e-04    -  1.00e+00 1.00e+00f  1
  63  1.4727432e-28 0.00e+00 2.07e-14  -8.6 6.48e-08    -  1.00e+00 1.00e+00f  1

Number of Iterations....: 63

                                   (scaled)                 (unscaled)
Objective...............:   1.4727431589190170e-28    1.4727431589190170e-28
Dual infeasibility......:   2.0660286130676304e-14    2.0660286130676304e-14
Constraint violation....:   0.0000000000000000e+00    0.0000000000000000e+00
Complementarity.........:   0.0000000000000000e+00    0.0000000000000000e+00
Overall NLP error.......:   2.0660286130676304e-14    2.0660286130676304e-14


Number of objective function evaluations             = 149
Number of objective gradient evaluations             = 64
Number of equality constraint evaluations            = 0
Number of inequality constraint evaluations          = 0
Number of equality constraint Jacobian evaluations   = 0
Number of inequality constraint Jacobian evaluations = 0
Number of Lagrangian Hessian evaluations             = 63
Total CPU secs in IPOPT (w/o function evaluations)   =      0.007
Total CPU secs in NLP function evaluations           =      0.003

EXIT: Optimal Solution Found.
Note: The following floating-point exceptions are signalling: IEEE_INVALID_FLAG

 ** SUBROUTINE CUTEST_csetup: Warning. The problem has no general constraints. 
 ** Other tools may be preferable ** 

************************ CUTEst statistics ************************


 Package used            :  IPOPT
 Problem                 :  SNAIL     
 # variables             =               2
 # constraints           =               0
 # objective functions   =        0.2140000E+03
 # objective gradients   =        0.6500000E+02
 # objective Hessians    =        0.6400000E+02
 # Hessian-vector prdct  =        0.0000000E+00
 # constraints functions =        0.0000000E+00
 # constraints gradients =        0.0000000E+00
 # constraints Hessians  =        0.0000000E+00
 Exit code               =               0
 Final f                 =   0.1472743E-27
 Set up time             =            0.00 seconds
 Solve time              =            0.08 seconds


******************************************************************

System Time =       0.0189999994 s.
